c generated by sgen
p cnf 69 148
-2 -3 -4 0
-1 -3 -4 0
-1 -2 -4 0
-1 -2 -3 0
-6 -7 -8 0
-5 -7 -8 0
-5 -6 -8 0
-5 -6 -7 0
-10 -11 -12 0
-9 -11 -12 0
-9 -10 -12 0
-9 -10 -11 0
-14 -15 -16 0
-13 -15 -16 0
-13 -14 -16 0
-13 -14 -15 0
-18 -19 -20 0
-17 -19 -20 0
-17 -18 -20 0
-17 -18 -19 0
-22 -23 -24 0
-21 -23 -24 0
-21 -22 -24 0
-21 -22 -23 0
-26 -27 -28 0
-25 -27 -28 0
-25 -26 -28 0
-25 -26 -27 0
-30 -31 -32 0
-29 -31 -32 0
-29 -30 -32 0
-29 -30 -31 0
-34 -35 -36 0
-33 -35 -36 0
-33 -34 -36 0
-33 -34 -35 0
-38 -39 -40 0
-37 -39 -40 0
-37 -38 -40 0
-37 -38 -39 0
-42 -43 -44 0
-41 -43 -44 0
-41 -42 -44 0
-41 -42 -43 0
-46 -47 -48 0
-45 -47 -48 0
-45 -46 -48 0
-45 -46 -47 0
-50 -51 -52 0
-49 -51 -52 0
-49 -50 -52 0
-49 -50 -51 0
-54 -55 -56 0
-53 -55 -56 0
-53 -54 -56 0
-53 -54 -55 0
-58 -59 -60 0
-57 -59 -60 0
-57 -58 -60 0
-57 -58 -59 0
-62 -63 -64 0
-61 -63 -64 0
-61 -62 -64 0
-61 -62 -63 0
-65 -66 -67 0
-65 -66 -68 0
-65 -66 -69 0
-65 -67 -68 0
-65 -67 -69 0
-65 -68 -69 0
-66 -67 -68 0
-66 -67 -69 0
-66 -68 -69 0
-67 -68 -69 0
44 58 27 0
22 58 27 0
22 44 27 0
22 44 58 0
54 46 26 0
38 46 26 0
38 54 26 0
38 54 46 0
68 15 52 0
3 15 52 0
3 68 52 0
3 68 15 0
60 4 7 0
29 4 7 0
29 60 7 0
29 60 4 0
11 39 17 0
16 39 17 0
16 11 17 0
16 11 39 0
66 41 18 0
30 41 18 0
30 66 18 0
30 66 41 0
20 64 51 0
24 64 51 0
24 20 51 0
24 20 64 0
61 67 10 0
28 67 10 0
28 61 10 0
28 61 67 0
50 43 48 0
34 43 48 0
34 50 48 0
34 50 43 0
32 49 53 0
12 49 53 0
12 32 53 0
12 32 49 0
23 1 47 0
9 1 47 0
9 23 47 0
9 23 1 0
63 42 6 0
40 42 6 0
40 63 6 0
40 63 42 0
56 69 21 0
8 69 21 0
8 56 21 0
8 56 69 0
59 65 37 0
36 65 37 0
36 59 37 0
36 59 65 0
35 14 55 0
5 14 55 0
5 35 55 0
5 35 14 0
25 19 2 0
33 19 2 0
33 25 2 0
33 25 19 0
57 31 13 0
57 31 62 0
57 31 45 0
57 13 62 0
57 13 45 0
57 62 45 0
31 13 62 0
31 13 45 0
31 62 45 0
13 62 45 0
